p cnf 13 29
-13 -11 -10 0
-13 9 -2 0
-13 -8 6 0
13 7 -6 0
13 7 4 0
12 -11 -3 0
12 -10 -8 0
12 -10 -2 0
12 8 7 0
12 8 -3 0
12 7 2 0
-12 -7 -1 0
12 6 4 0
12 -6 1 0
11 -10 -3 0
-11 9 8 0
11 -8 7 0
-11 -8 1 0
-11 -6 2 0
-11 -5 -4 0
-10 9 5 0
-10 9 -4 0
-10 8 -5 0
10 6 1 0
-8 -7 1 0
-8 -6 -5 0
-8 2 1 0
-7 -4 -3 0
-3 2 1 0
